JulietBench/Juliet_Based_Patch_Bench/linux/CWE-190-Integer-Overflow-or-Wraparound/CVE_2016_9084_05692d7005a364add85c6e25a6c4447ce08f913a/Resultvfio_pci_ioctl_patch1EQ.smt2
; benchmark generated from python API
(set-info :status unknown)
(declare-fun R () (_ BitVec 32))
(declare-fun rcx () (_ BitVec 64))
(declare-fun rdi () (_ BitVec 64))
(declare-fun rsi () (_ BitVec 64))
(declare-fun rdx () (_ BitVec 64))
(assert
 (let (($x1159 (= (_ bv4294967274 32) R)))
 (let ((?x12 ((_ extract 31 0) rcx)))
 (let ((?x13 ((_ zero_extend 32) ?x12)))
 (let (($x46 (bvugt (_ bv50 64) ?x13)))
 (let (($x2209 (and $x46 $x1159)))
 (let (($x17 (bvule (_ bv50 64) ?x13)))
 (let ((?x6 ((_ extract 31 0) rdi)))
 (let ((?x805 (bvnot ?x6)))
 (let ((?x8 ((_ extract 31 0) rsi)))
 (let (($x300 (bvuge ?x8 ?x805)))
 (let (($x912 (and $x300 $x17 $x1159)))
 (let (($x803 (bvult ?x8 ?x805)))
 (let ((?x10 ((_ extract 31 0) rdx)))
 (let ((?x65 (bvand ?x10 (_ bv4294967232 32))))
 (let (($x101 (and (distinct (_ bv0 32) ?x65) true)))
 (let (($x1114 (and $x101 $x803 $x17 $x1159)))
 (let (($x79 (= (_ bv0 32) ?x65)))
 (let (($x801 (bvuge ?x6 (_ bv50 32))))
 (let (($x1570 (and $x801 $x79 $x803 $x17 $x1159)))
 (let (($x791 (bvult ?x6 (_ bv50 32))))
 (let ((?x815 (bvadd ?x6 ?x8)))
 (let (($x844 (bvugt ?x815 (_ bv50 32))))
 (let (($x2183 (and $x844 $x791 $x79 $x803 $x17 $x1159)))
 (let (($x822 (bvule ?x815 (_ bv50 32))))
 (let ((?x124 ((_ extract 7 0) rdx)))
 (let ((?x2193 (bvand ?x124 (_ bv7 8))))
 (let (($x1133 (and (distinct (_ bv4 8) ?x2193) true)))
 (let ((?x719 ((_ extract 2 0) rdx)))
 (let ((?x97 (concat (_ bv0 29) ?x719)))
 (let (($x2414 (bvugt ?x97 (_ bv4 32))))
 (let (($x1931 (and $x2414 $x1133 $x822 $x791 $x79 $x803 $x17 $x1159)))
 (let (($x1560 (= (_ bv4 8) ?x2193)))
 (let ((?x267 ((_ zero_extend 32) ?x8)))
 (let ((?x649 (bvmul (_ bv4 64) ?x267)))
 (let ((?x303 (bvsub ?x13 (_ bv50 64))))
 (let (($x651 (bvult ?x303 ?x649)))
 (let (($x1196 (and $x651 $x1560 $x822 $x791 $x79 $x803 $x17 $x1159)))
 (let (($x2338 (= (_ bv0 32) R)))
 (let (($x785 (bvuge ?x303 ?x649)))
 (let (($x1621 (and $x785 $x1560 $x822 $x791 $x79 $x803 $x17 $x2338)))
 (let (($x834 (bvule ?x97 (_ bv4 32))))
 (let (($x926 (= (_ bv1 3) ?x719)))
 (let (($x2228 (and $x926 $x834 $x1133 $x822 $x791 $x79 $x803 $x17 $x2338)))
 (let (($x1494 (and (distinct (_ bv1 3) ?x719) true)))
 (let (($x1694 (and (distinct (_ bv2 3) ?x719) true)))
 (let (($x1896 (and $x1694 $x1494 $x834 $x1133 $x822 $x791 $x79 $x803 $x17 $x1159)))
 (let (($x890 (= (_ bv2 3) ?x719)))
 (let ((?x282 (bvmul (_ bv1 64) ?x267)))
 (let (($x285 (bvult ?x303 ?x282)))
 (let (($x1336 (and $x285 $x890 $x1494 $x834 $x1133 $x822 $x791 $x79 $x803 $x17 $x1159)))
 (let (($x643 (bvuge ?x303 ?x282)))
 (let (($x1774 (and $x643 $x890 $x1494 $x834 $x1133 $x822 $x791 $x79 $x803 $x17 $x2338)))
 (let (($x1574 (or $x1774 $x1336 $x1896 $x2228 $x1621 $x1196 $x1931 $x2183 $x1570 $x1114 $x912 $x2209)))
 (let (($x950 (and $x101 $x17 $x1159)))
 (let ((?x128 (bvand ?x124 (_ bv1 8))))
 (let (($x192 (and (distinct (_ bv0 8) ?x128) true)))
 (let (($x2218 (and $x192 $x79 $x17 $x2338)))
 (let (($x114 (= (_ bv0 8) ?x128)))
 (let ((?x224 (bvand ?x124 (_ bv2 8))))
 (let (($x225 (= (_ bv0 8) ?x224)))
 (let ((?x233 (bvand ?x124 (_ bv4 8))))
 (let (($x253 (= (_ bv0 8) ?x233)))
 (let (($x1169 (and $x253 $x225 $x114 $x79 $x17 $x1159)))
 (let (($x257 (and (distinct (_ bv0 8) ?x224) true)))
 (let (($x1185 (and $x285 $x257 $x114 $x79 $x17 $x1159)))
 (let (($x302 (and (distinct (_ bv0 8) ?x233) true)))
 (let (($x1101 (and $x651 $x302 $x225 $x114 $x79 $x17 $x1159)))
 (let (($x1947 (and $x801 $x643 $x257 $x114 $x79 $x17 $x1159)))
 (let (($x1709 (and $x801 $x785 $x302 $x225 $x114 $x79 $x17 $x1159)))
 (let (($x1509 (and $x822 $x791 $x643 $x257 $x114 $x79 $x17 $x2338)))
 (let (($x1973 (and $x844 $x791 $x643 $x257 $x114 $x79 $x17 $x1159)))
 (let (($x2627 (and $x822 $x791 $x785 $x302 $x225 $x114 $x79 $x17 $x2338)))
 (let (($x1986 (and $x844 $x791 $x785 $x302 $x225 $x114 $x79 $x17 $x1159)))
 (let (($x2033 (or $x1986 $x2627 $x1973 $x1509 $x1709 $x1947 $x1101 $x1185 $x1169 $x2218 $x950 $x2209)))
 (and $x2033 $x1574))))))))))))))))))))))))))))))))))))))))))))))))))))))))))))))))))))))))))))
(check-sat)
